
Gurobi 9.1.2 (linux64, gurobi_cl) logging started Fri Jul 30 13:54:55 2021

Using license file /opt/gurobi/gurobi.lic
Set parameter TimeLimit to value 600
Set parameter Heuristics to value 0.1
Set parameter Cuts to value 1
Set parameter LogFile to value 912-Cuts1-Heuristics0.1-glass4-0.log

Gurobi Optimizer version 9.1.2 build v9.1.2rc0 (linux64)
Copyright (c) 2021, Gurobi Optimization, LLC

Read MPS format model from file /nfs/models/mip/glass4.mps.bz2
Reading time = 0.02 seconds
glass4: 396 rows, 322 columns, 1815 nonzeros
Thread count: 4 physical cores, 8 logical processors, using up to 8 threads
Optimize a model with 396 rows, 322 columns and 1815 nonzeros
Model fingerprint: 0x0a9d9037
Variable types: 20 continuous, 302 integer (0 binary)
Coefficient statistics:
  Matrix range     [1e+00, 8e+06]
  Objective range  [1e+00, 1e+06]
  Bounds range     [1e+00, 8e+02]
  RHS range        [1e+00, 8e+06]
Presolve removed 6 rows and 6 columns
Presolve time: 0.00s
Presolved: 390 rows, 316 columns, 1803 nonzeros
Variable types: 19 continuous, 297 integer (297 binary)
Found heuristic solution: objective 3.133356e+09

Root relaxation: objective 8.000024e+08, 72 iterations, 0.00 seconds

    Nodes    |    Current Node    |     Objective Bounds      |     Work
 Expl Unexpl |  Obj  Depth IntInf | Incumbent    BestBd   Gap | It/Node Time

     0     0 8.0000e+08    0   72 3.1334e+09 8.0000e+08  74.5%     -    0s
H    0     0                    2.200019e+09 8.0000e+08  63.6%     -    0s
H    0     0                    2.000016e+09 8.0000e+08  60.0%     -    0s
     0     0 8.0000e+08    0   72 2.0000e+09 8.0000e+08  60.0%     -    0s
     0     0 8.0000e+08    0   81 2.0000e+09 8.0000e+08  60.0%     -    0s
     0     0 8.0000e+08    0   79 2.0000e+09 8.0000e+08  60.0%     -    0s
     0     2 8.0000e+08    0   78 2.0000e+09 8.0000e+08  60.0%     -    0s
H   78   172                    2.000016e+09 8.0000e+08  60.0%   9.4    0s
H  209   257                    1.966683e+09 8.0000e+08  59.3%   6.6    0s
H  673   614                    1.966682e+09 8.0000e+08  59.3%   5.9    0s
H  679   754                    1.925017e+09 8.0000e+08  58.4%   6.0    0s
H  716   753                    1.900018e+09 8.0000e+08  57.9%   6.0    0s
*  928  1185              33    1.900016e+09 8.0000e+08  57.9%   5.9    0s
*  929  1185              33    1.900015e+09 8.0000e+08  57.9%   5.9    0s
*  932  1185              33    1.900015e+09 8.0000e+08  57.9%   5.9    0s
H 1393  1122                    1.900015e+09 8.0000e+08  57.9%   5.6    0s
H 1466  1123                    1.850016e+09 8.0000e+08  56.8%   7.0    0s
H 1513  1134                    1.800015e+09 8.0000e+08  55.6%   7.2    0s
H 2216  1409                    1.800015e+09 8.0000e+08  55.6%   7.7    1s
H 2259  1375                    1.800015e+09 8.0000e+08  55.6%   7.8    1s
H 5302  3104                    1.775016e+09 8.0000e+08  54.9%   9.1    2s
H 5436  3101                    1.733350e+09 8.0001e+08  53.8%   9.1    2s
H 5759  3314                    1.700015e+09 8.0001e+08  52.9%   9.4    2s
* 7548  4515              78    1.650015e+09 8.0001e+08  51.5%  10.3    3s
H10757  6564                    1.600014e+09 8.0001e+08  50.0%  10.0    4s
H13241  8352                    1.600013e+09 8.0001e+08  50.0%  10.2    5s
H13289  7860                    1.540014e+09 8.0001e+08  48.1%  10.2    5s
H13444  7658                    1.500013e+09 8.0001e+08  46.7%  10.2    5s
H13457  6728                    1.450012e+09 8.0001e+08  44.8%  10.2    5s
 25809 13915 1.1000e+09   35   50 1.4500e+09 8.0001e+08  44.8%  12.6   10s
H27803 11969                    1.250013e+09 8.0001e+08  36.0%  13.4   11s
H27893 11108                    1.200013e+09 8.0001e+08  33.3%  13.5   11s
 32345  8750 9.0001e+08   33   38 1.2000e+09 9.0001e+08  25.0%  16.6   15s

Cutting planes:
  Gomory: 67
  Cover: 3
  Implied bound: 30
  MIR: 18
  Flow cover: 134
  RLT: 72
  Relax-and-lift: 67

Explored 42586 nodes (672457 simplex iterations) in 16.40 seconds
Thread count was 8 (of 8 available processors)

Solution count 10: 1.20001e+09 1.25001e+09 1.45001e+09 ... 1.73335e+09

Optimal solution found (tolerance 1.00e-04)
Best objective 1.200012600000e+09, best bound 1.200005179940e+09, gap 0.0006%
